(declare-const c_0 Real)
(declare-const c_1 Real)
(declare-const c_2 Real)
(declare-const c_3 Real)
(declare-const c_4 Real)
(declare-const c_5 Real)
(declare-const c_6 Real)
(declare-const c_7 Real)
(declare-const c_8 Real)
(declare-const c_9 Real)
(declare-const c_10 Real)
(declare-const c_11 Real)
(declare-const c_12 Real)
(declare-const c_13 Real)
(declare-const c_14 Real)
(declare-const c_15 Real)
(declare-const c_16 Real)
(declare-const c_17 Real)
(declare-const c_18 Real)
(declare-const c_19 Real)
(declare-const c_20 Real)
(declare-const c_21 Real)
(declare-const c_22 Real)
(declare-const c_23 Real)
(declare-const c_24 Real)
(declare-const c_25 Real)
(declare-const c_26 Real)
(declare-const c_27 Real)
(declare-const c_28 Real)
(declare-const c_29 Real)
(declare-const c_30 Real)
(declare-const c_31 Real)
(declare-const c_32 Real)
(declare-const c_33 Real)
(declare-const c_34 Real)
(declare-const c_35 Real)
(declare-const c_36 Real)
(declare-const c_37 Real)
(declare-const c_38 Real)
(declare-const c_39 Real)
(declare-const c_40 Real)
(declare-const c_41 Real)
(declare-const c_42 Real)
(declare-const c_43 Real)
(declare-const c_44 Real)
(declare-const c_45 Real)
(declare-const c_46 Real)
(declare-const c_47 Real)
(declare-const c_48 Real)
(declare-const c_49 Real)
(declare-const c_50 Real)
(declare-const c_51 Real)
(declare-const c_52 Real)
(declare-const c_53 Real)
(declare-const c_54 Real)
(declare-const c_55 Real)
(declare-const c_56 Real)
(declare-const c_57 Real)
(declare-const c_58 Real)
(declare-const c_59 Real)
(declare-const c_60 Real)
(declare-const c_61 Real)
(declare-const c_62 Real)
(declare-const c_63 Real)
(declare-const c_64 Real)
(declare-const c_65 Real)
(declare-const c_66 Real)
(declare-const c_67 Real)
(declare-const c_68 Real)
(declare-const c_69 Real)
(declare-const c_70 Real)
(declare-const c_71 Real)
(declare-const c_72 Real)
(declare-const c_73 Real)
(declare-const c_74 Real)
(declare-const c_75 Real)
(declare-const c_76 Real)
(declare-const c_77 Real)
(declare-const c_78 Real)
(declare-const c_79 Real)
(declare-const c_80 Real)
(declare-const c_81 Real)
(declare-const c_82 Real)
(declare-const c_83 Real)
(declare-const c_84 Real)
(declare-const c_85 Real)
(declare-const c_86 Real)
(declare-const c_87 Real)
(declare-const c_88 Real)
(declare-const c_89 Real)
(declare-const c_90 Real)
(declare-const c_91 Real)
(declare-const c_92 Real)
(declare-const c_93 Real)
(declare-const c_94 Real)
(declare-const c_95 Real)
(declare-const c_96 Real)
(declare-const c_97 Real)
(declare-const c_98 Real)
(declare-const c_99 Real)
(declare-const c_100 Real)
(declare-const c_101 Real)
(declare-const c_102 Real)
(declare-const c_103 Real)
(declare-const c_104 Real)
(declare-const c_105 Real)
(declare-const c_106 Real)
(declare-const c_107 Real)
(declare-const c_108 Real)
(declare-const c_109 Real)
(declare-const c_110 Real)
(declare-const c_111 Real)
(declare-const c_112 Real)
(declare-const c_113 Real)
(declare-const c_114 Real)
(declare-const c_115 Real)
(declare-const c_116 Real)
(declare-const c_117 Real)
(declare-const c_118 Real)
(declare-const c_119 Real)
(declare-const c_120 Real)
(declare-const c_121 Real)
(declare-const c_122 Real)
(declare-const c_123 Real)
(declare-const c_124 Real)
(declare-const c_125 Real)
(declare-const c_126 Real)
(declare-const c_127 Real)
(declare-const c_128 Real)
(declare-const c_129 Real)
(declare-const c_130 Real)
(declare-const c_131 Real)
(declare-const c_132 Real)
(declare-const c_133 Real)
(declare-const c_134 Real)
(declare-const c_135 Real)
(declare-const c_136 Real)
(declare-const c_137 Real)
(declare-const c_138 Real)
(declare-const c_139 Real)
(declare-const c_140 Real)
(declare-const c_141 Real)
(declare-const c_142 Real)
(declare-const c_143 Real)
(declare-const c_144 Real)
(declare-const c_145 Real)
(declare-const c_146 Real)
(declare-const c_147 Real)
(declare-const c_148 Real)
(declare-const c_149 Real)
(declare-const c_150 Real)
(declare-const c_151 Real)
(declare-const c_152 Real)
(declare-const c_153 Real)
(declare-const c_154 Real)
(declare-const c_155 Real)
(declare-const c_156 Real)
(declare-const c_157 Real)
(declare-const c_158 Real)
(declare-const c_159 Real)
(declare-const c_160 Real)
(declare-const c_161 Real)
(declare-const c_162 Real)
(declare-const c_163 Real)
(declare-const c_164 Real)
(declare-const c_165 Real)
(declare-const c_166 Real)
(declare-const c_167 Real)
(declare-const c_168 Real)
(declare-const c_169 Real)
(declare-const c_170 Real)
(declare-const c_171 Real)
(declare-const c_172 Real)
(declare-const c_173 Real)
(declare-const c_174 Real)
(declare-const c_175 Real)
(declare-const c_176 Real)
(declare-const c_177 Real)
(declare-const c_178 Real)
(declare-const c_179 Real)
(declare-const c_180 Real)
(declare-const c_181 Real)
(declare-const c_182 Real)
(declare-const c_183 Real)
(declare-const c_184 Real)
(declare-const c_185 Real)
(declare-const c_186 Real)
(declare-const c_187 Real)
(declare-const c_188 Real)
(assert (forall ((a Real) (b Real) (cost Real) (c Real) (d Real) ) (=> (and (>= (+ (* 1 1) (* (- 1) a ) (* (- 1) b ) (* (- 1) c ) (* 1 cost ) (* (- 1) d ) ) 0) (>= (* 1 d ) 0) (>= (* 1 c ) 0) (>= (* 1 cost ) 0) (>= (* 1 b ) 0) (>= (* 1 a ) 0) (>= (+ (* 1 1) (* (- 1) a ) ) 0) (>= (+ (* 1 1) (* (- 1) b ) ) 0) (>= (+ (* 1 1) (* (- 1) c ) ) 0) (>= (+ (* 1 1) (* (- 1) d ) ) 0) (>= (* (- 1) cost ) 0) (>= (* (- 1) a ) 0) (>= (* (- 1) b ) 0) (>= (* (- 1) c ) 0) (>= (* (- 1) d ) 0) ) (>= (+ (* 1 a b c_2 ) (* 1 a c c_3 ) (* 1 a c_1 ) (* 1 a c_4 cost ) (* 1 a c_5 d ) (* 1 a a c_6 ) (* 1 b c c_8 ) (* 1 b c_10 d ) (* 1 b c_7 ) (* 1 b c_9 cost ) (* 1 b b c_11 ) (* 1 c c_12 ) (* 1 c c_13 cost ) (* 1 c c_14 d ) (* 1 c c c_15 ) (* 1 c_0 ) (* 1 c_16 cost ) (* 1 c_17 cost d ) (* 1 c_18 cost cost ) (* 1 c_19 d ) (* 1 c_20 d d ) ) 0) )))
(assert (forall ((a Real) (b Real) (cost Real) (c Real) (d Real) ) (=> (and (>= (+ (* 3 1) (* (- 1) a ) (* (- 1) b ) (* (- 1) c ) (* (- 1) d ) ) 0) (>= (+ (* 1 1) (* (- 1) a ) (* (- 1) b ) (* (- 1) c ) (* 1 cost ) (* (- 1) d ) ) 0) (>= (* 1 d ) 0) (>= (* 1 c ) 0) (>= (* 1 cost ) 0) (>= (* 1 b ) 0) (>= (* 1 a ) 0) (>= (+ (* 1 1) (* (- 1) a ) ) 0) (>= (+ (* 1 1) (* (- 1) b ) ) 0) (>= (+ (* 1 1) (* (- 1) c ) ) 0) (>= (+ (* 1 1) (* (- 1) d ) ) 0) ) (>= (+ (* (- 1) 1) (* 1 a b c_2 ) (* (- 1) a b c_23 ) (* (- 1) a c c_24 ) (* 1 a c c_3 ) (* 1 a c_1 ) (* (- 1) a c_22 ) (* (- 1) a c_25 cost ) (* (- 1) a c_26 d ) (* 1 a c_4 cost ) (* 1 a c_5 d ) (* (- 1) a a c_27 ) (* 1 a a c_6 ) (* (- 1) b c c_29 ) (* 1 b c c_8 ) (* 1 b c_10 d ) (* (- 1) b c_28 ) (* (- 1) b c_30 cost ) (* (- 1) b c_31 d ) (* 1 b c_7 ) (* 1 b c_9 cost ) (* 1 b b c_11 ) (* (- 1) b b c_32 ) (* 1 c c_12 ) (* 1 c c_13 cost ) (* 1 c c_14 d ) (* (- 1) c c_33 ) (* (- 1) c c_34 cost ) (* (- 1) c c_35 d ) (* 1 c c c_15 ) (* (- 1) c c c_36 ) (* 1 c_0 ) (* 1 c_16 cost ) (* 1 c_17 cost d ) (* 1 c_18 cost cost ) (* 1 c_19 d ) (* 1 c_20 d d ) (* (- 1) c_21 ) (* (- 1) c_37 cost ) (* (- 1) c_38 cost d ) (* (- 1) c_39 cost cost ) (* (- 1) c_40 d ) (* (- 1) c_41 d d ) ) 0) )))
(assert (forall ((a Real) (b Real) (cost Real) (c Real) (d Real) ) (=> (and (>= (+ (* 3 1) (* (- 1) a ) (* (- 1) b ) (* (- 1) c ) (* (- 1) d ) ) 0) (>= (+ (* 1 1) (* (- 1) a ) (* (- 1) b ) (* (- 1) c ) (* 1 cost ) (* (- 1) d ) ) 0) (>= (* 1 d ) 0) (>= (* 1 c ) 0) (>= (* 1 cost ) 0) (>= (* 1 b ) 0) (>= (* 1 a ) 0) (>= (+ (* 1 1) (* (- 1) a ) ) 0) (>= (+ (* 1 1) (* (- 1) b ) ) 0) (>= (+ (* 1 1) (* (- 1) c ) ) 0) (>= (+ (* 1 1) (* (- 1) d ) ) 0) ) (>= (+ (* 1 a b c_23 ) (* 1 a c c_24 ) (* 1 a c_22 ) (* 1 a c_25 cost ) (* 1 a c_26 d ) (* 1 a a c_27 ) (* 1 b c c_29 ) (* 1 b c_28 ) (* 1 b c_30 cost ) (* 1 b c_31 d ) (* 1 b b c_32 ) (* 1 c c_33 ) (* 1 c c_34 cost ) (* 1 c c_35 d ) (* 1 c c c_36 ) (* 1 c_21 ) (* 1 c_37 cost ) (* 1 c_38 cost d ) (* 1 c_39 cost cost ) (* 1 c_40 d ) (* 1 c_41 d d ) ) 0) )))
(assert (forall ((a Real) (b Real) (cost Real) (c Real) (d Real) ) (=> (and (>= (+ (* (- 4) 1) (* 1 a ) (* 1 b ) (* 1 c ) (* 1 d ) ) 0) (>= (+ (* 1 1) (* (- 1) a ) (* (- 1) b ) (* (- 1) c ) (* 1 cost ) (* (- 1) d ) ) 0) (>= (* 1 d ) 0) (>= (* 1 c ) 0) (>= (* 1 cost ) 0) (>= (* 1 b ) 0) (>= (* 1 a ) 0) (>= (+ (* 1 1) (* (- 1) a ) ) 0) (>= (+ (* 1 1) (* (- 1) b ) ) 0) (>= (+ (* 1 1) (* (- 1) c ) ) 0) (>= (+ (* 1 1) (* (- 1) d ) ) 0) ) (>= (+ (* (- 1) 1) (* (- 1) a b c_170 ) (* 1 a b c_2 ) (* (- 1) a c c_171 ) (* 1 a c c_3 ) (* 1 a c_1 ) (* (- 1) a c_169 ) (* (- 1) a c_172 cost ) (* (- 1) a c_173 d ) (* 1 a c_4 cost ) (* 1 a c_5 d ) (* (- 1) a a c_174 ) (* 1 a a c_6 ) (* (- 1) b c c_176 ) (* 1 b c c_8 ) (* 1 b c_10 d ) (* (- 1) b c_175 ) (* (- 1) b c_177 cost ) (* (- 1) b c_178 d ) (* 1 b c_7 ) (* 1 b c_9 cost ) (* 1 b b c_11 ) (* (- 1) b b c_179 ) (* 1 c c_12 ) (* 1 c c_13 cost ) (* 1 c c_14 d ) (* (- 1) c c_180 ) (* (- 1) c c_181 cost ) (* (- 1) c c_182 d ) (* 1 c c c_15 ) (* (- 1) c c c_183 ) (* 1 c_0 ) (* 1 c_16 cost ) (* (- 1) c_168 ) (* 1 c_17 cost d ) (* 1 c_18 cost cost ) (* (- 1) c_184 cost ) (* (- 1) c_185 cost d ) (* (- 1) c_186 cost cost ) (* (- 1) c_187 d ) (* (- 1) c_188 d d ) (* 1 c_19 d ) (* 1 c_20 d d ) ) 0) )))
(assert (forall ((a Real) (b Real) (cost Real) (c Real) (d Real) ) (=> (and (>= (+ (* (- 4) 1) (* 1 a ) (* 1 b ) (* 1 c ) (* 1 d ) ) 0) (>= (+ (* 1 1) (* (- 1) a ) (* (- 1) b ) (* (- 1) c ) (* 1 cost ) (* (- 1) d ) ) 0) (>= (* 1 d ) 0) (>= (* 1 c ) 0) (>= (* 1 cost ) 0) (>= (* 1 b ) 0) (>= (* 1 a ) 0) (>= (+ (* 1 1) (* (- 1) a ) ) 0) (>= (+ (* 1 1) (* (- 1) b ) ) 0) (>= (+ (* 1 1) (* (- 1) c ) ) 0) (>= (+ (* 1 1) (* (- 1) d ) ) 0) ) (>= (+ (* 1 a b c_170 ) (* 1 a c c_171 ) (* 1 a c_169 ) (* 1 a c_172 cost ) (* 1 a c_173 d ) (* 1 a a c_174 ) (* 1 b c c_176 ) (* 1 b c_175 ) (* 1 b c_177 cost ) (* 1 b c_178 d ) (* 1 b b c_179 ) (* 1 c c_180 ) (* 1 c c_181 cost ) (* 1 c c_182 d ) (* 1 c c c_183 ) (* 1 c_168 ) (* 1 c_184 cost ) (* 1 c_185 cost d ) (* 1 c_186 cost cost ) (* 1 c_187 d ) (* 1 c_188 d d ) ) 0) )))
(assert (forall ((a Real) (b Real) (cost Real) (c Real) (d Real) ) (=> (and (>= (+ (* 3 1) (* (- 1) a ) (* (- 1) b ) (* (- 1) c ) (* (- 1) d ) ) 0) (>= (+ (* 1 1) (* (- 1) a ) (* (- 1) b ) (* (- 1) c ) (* 1 cost ) (* (- 1) d ) ) 0) (>= (* 1 d ) 0) (>= (* 1 c ) 0) (>= (* 1 cost ) 0) (>= (* 1 b ) 0) (>= (* 1 a ) 0) (>= (+ (* 1 1) (* (- 1) a ) ) 0) (>= (+ (* 1 1) (* (- 1) b ) ) 0) (>= (+ (* 1 1) (* (- 1) c ) ) 0) (>= (+ (* 1 1) (* (- 1) d ) ) 0) ) (>= (+ (* (- 1) 1) (* 1 a b c_23 ) (* (- 1) a b c_44 ) (* (- 1) a b c_46 ) (* (- 1) a b c_51 ) (* (- 2) a b c_60 ) (* 1 a c c_24 ) (* (- 1) a c c_45 ) (* (- 1) a c c_46 ) (* (- 1) a c c_55 ) (* (- 2) a c c_60 ) (* 1 a c_22 ) (* 1 a c_25 cost ) (* 1 a c_26 d ) (* (- 1) a c_43 ) (* (- 1) a c_46 cost ) (* (- 1) a c_46 d ) (* (- 1) a c_47 d ) (* (- 1) a c_58 ) (* (- 1) a c_59 d ) (* (- 2) a c_60 cost ) (* (- 2) a c_60 d ) (* 1 a a c_27 ) (* (- 1) a a c_46 ) (* (- 1) a a c_48 ) (* (- 1) a a c_60 ) (* 1 b c c_29 ) (* (- 1) b c c_50 ) (* (- 1) b c c_51 ) (* (- 1) b c c_55 ) (* (- 2) b c c_60 ) (* 1 b c_28 ) (* 1 b c_30 cost ) (* 1 b c_31 d ) (* (- 1) b c_49 ) (* (- 1) b c_51 cost ) (* (- 1) b c_51 d ) (* (- 1) b c_52 d ) (* (- 1) b c_58 ) (* (- 1) b c_59 d ) (* (- 2) b c_60 cost ) (* (- 2) b c_60 d ) (* 1 b b c_32 ) (* (- 1) b b c_51 ) (* (- 1) b b c_53 ) (* (- 1) b b c_60 ) (* 1 c c_33 ) (* 1 c c_34 cost ) (* 1 c c_35 d ) (* (- 1) c c_54 ) (* (- 1) c c_55 cost ) (* (- 1) c c_55 d ) (* (- 1) c c_56 d ) (* (- 1) c c_58 ) (* (- 1) c c_59 d ) (* (- 2) c c_60 cost ) (* (- 2) c c_60 d ) (* 1 c c c_36 ) (* (- 1) c c c_55 ) (* (- 1) c c c_57 ) (* (- 1) c c c_60 ) (* 1 c_21 ) (* 1 c_37 cost ) (* 1 c_38 cost d ) (* 1 c_39 cost cost ) (* 1 c_40 d ) (* 1 c_41 d d ) (* (- 1) c_42 ) (* (- 1) c_58 cost ) (* (- 1) c_58 d ) (* (- 1) c_59 cost d ) (* (- 1) c_59 d d ) (* (- 2) c_60 cost d ) (* (- 1) c_60 cost cost ) (* (- 1) c_60 d d ) (* (- 1) c_61 d ) (* (- 1) c_62 d d ) ) 0) )))
(assert (forall ((a Real) (b Real) (cost Real) (c Real) (d Real) ) (=> (and (>= (+ (* 3 1) (* (- 1) a ) (* (- 1) b ) (* (- 1) c ) (* (- 1) d ) ) 0) (>= (+ (* 1 1) (* (- 1) a ) (* (- 1) b ) (* (- 1) c ) (* 1 cost ) (* (- 1) d ) ) 0) (>= (* 1 d ) 0) (>= (* 1 c ) 0) (>= (* 1 cost ) 0) (>= (* 1 b ) 0) (>= (* 1 a ) 0) (>= (+ (* 1 1) (* (- 1) a ) ) 0) (>= (+ (* 1 1) (* (- 1) b ) ) 0) (>= (+ (* 1 1) (* (- 1) c ) ) 0) (>= (+ (* 1 1) (* (- 1) d ) ) 0) ) (>= (+ (* 1 a b c_44 ) (* 1 a c c_45 ) (* 1 a c_43 ) (* 1 a c_46 cost ) (* 1 a c_47 d ) (* 1 a a c_48 ) (* 1 b c c_50 ) (* 1 b c_49 ) (* 1 b c_51 cost ) (* 1 b c_52 d ) (* 1 b b c_53 ) (* 1 c c_54 ) (* 1 c c_55 cost ) (* 1 c c_56 d ) (* 1 c c c_57 ) (* 1 c_42 ) (* 1 c_58 cost ) (* 1 c_59 cost d ) (* 1 c_60 cost cost ) (* 1 c_61 d ) (* 1 c_62 d d ) ) 0) )))
(assert (forall ((a Real) (b Real) (cost Real) (c Real) (d Real) ) (=> (and (>= (+ (* (- 1) a ) (* (- 1) b ) (* (- 1) c ) (* 1 cost ) (* (- 1) d ) ) 0) (>= (* 1 a ) 0) (>= (+ (* 3 1) (* (- 1) a ) (* (- 1) b ) (* (- 1) c ) (* (- 1) d ) ) 0) (>= (* 1 b ) 0) (>= (* 1 c ) 0) (>= (* 1 d ) 0) (>= (+ (* 1 1) (* (- 2) a ) (* (- 2) b ) (* (- 2) c ) (* 1 cost ) (* (- 2) d ) ) 0) (>= (+ (* 1 1) (* (- 1) a ) ) 0) (>= (+ (* 1 1) (* (- 1) b ) ) 0) (>= (+ (* 1 1) (* (- 1) c ) ) 0) (>= (+ (* 1 1) (* (- 1) d ) ) 0) ) (>= (+ (* (/ (- 1) 4) a b c_107 ) (* (/ (- 1) 4) a b c_128 ) (* 1 a b c_44 ) (* (/ (- 1) 4) a b c_65 ) (* (/ (- 1) 4) a b c_86 ) (* (/ (- 1) 4) a c c_108 ) (* (/ (- 1) 4) a c c_129 ) (* 1 a c c_45 ) (* (/ (- 1) 4) a c c_66 ) (* (/ (- 1) 4) a c c_87 ) (* (/ (- 1) 4) a c_106 ) (* (/ (- 1) 4) a c_109 cost ) (* (/ (- 1) 4) a c_110 d ) (* (/ (- 1) 4) a c_127 ) (* (/ (- 1) 4) a c_130 cost ) (* (/ (- 1) 4) a c_131 d ) (* 1 a c_43 ) (* 1 a c_46 cost ) (* 1 a c_47 d ) (* (/ (- 1) 4) a c_64 ) (* (/ (- 1) 4) a c_67 cost ) (* (/ (- 1) 4) a c_68 d ) (* (/ (- 1) 4) a c_85 ) (* (/ (- 1) 4) a c_88 cost ) (* (/ (- 1) 4) a c_89 d ) (* (/ (- 1) 4) a a c_111 ) (* (/ (- 1) 4) a a c_132 ) (* 1 a a c_48 ) (* (/ (- 1) 4) a a c_69 ) (* (/ (- 1) 4) a a c_90 ) (* (/ (- 1) 4) b c c_113 ) (* (/ (- 1) 4) b c c_134 ) (* 1 b c c_50 ) (* (/ (- 1) 4) b c c_71 ) (* (/ (- 1) 4) b c c_92 ) (* (/ (- 1) 4) b c_112 ) (* (/ (- 1) 4) b c_114 cost ) (* (/ (- 1) 4) b c_115 d ) (* (/ (- 1) 4) b c_133 ) (* (/ (- 1) 4) b c_135 cost ) (* (/ (- 1) 4) b c_136 d ) (* 1 b c_49 ) (* 1 b c_51 cost ) (* 1 b c_52 d ) (* (/ (- 1) 4) b c_70 ) (* (/ (- 1) 4) b c_72 cost ) (* (/ (- 1) 4) b c_73 d ) (* (/ (- 1) 4) b c_91 ) (* (/ (- 1) 4) b c_93 cost ) (* (/ (- 1) 4) b c_94 d ) (* (/ (- 1) 4) b b c_116 ) (* (/ (- 1) 4) b b c_137 ) (* 1 b b c_53 ) (* (/ (- 1) 4) b b c_74 ) (* (/ (- 1) 4) b b c_95 ) (* (/ (- 1) 4) c c_117 ) (* (/ (- 1) 4) c c_118 cost ) (* (/ (- 1) 4) c c_119 d ) (* (/ (- 1) 4) c c_138 ) (* (/ (- 1) 4) c c_139 cost ) (* (/ (- 1) 4) c c_140 d ) (* 1 c c_54 ) (* 1 c c_55 cost ) (* 1 c c_56 d ) (* (/ (- 1) 4) c c_75 ) (* (/ (- 1) 4) c c_76 cost ) (* (/ (- 1) 4) c c_77 d ) (* (/ (- 1) 4) c c_96 ) (* (/ (- 1) 4) c c_97 cost ) (* (/ (- 1) 4) c c_98 d ) (* (/ (- 1) 4) c c c_120 ) (* (/ (- 1) 4) c c c_141 ) (* 1 c c c_57 ) (* (/ (- 1) 4) c c c_78 ) (* (/ (- 1) 4) c c c_99 ) (* (/ (- 1) 4) c_100 cost ) (* (/ (- 1) 4) c_101 cost d ) (* (/ (- 1) 4) c_102 cost cost ) (* (/ (- 1) 4) c_103 d ) (* (/ (- 1) 4) c_104 d d ) (* (/ (- 1) 4) c_105 ) (* (/ (- 1) 4) c_121 cost ) (* (/ (- 1) 4) c_122 cost d ) (* (/ (- 1) 4) c_123 cost cost ) (* (/ (- 1) 4) c_124 d ) (* (/ (- 1) 4) c_125 d d ) (* (/ (- 1) 4) c_126 ) (* (/ (- 1) 4) c_142 cost ) (* (/ (- 1) 4) c_143 cost d ) (* (/ (- 1) 4) c_144 cost cost ) (* (/ (- 1) 4) c_145 d ) (* (/ (- 1) 4) c_146 d d ) (* 1 c_42 ) (* 1 c_58 cost ) (* 1 c_59 cost d ) (* 1 c_60 cost cost ) (* 1 c_61 d ) (* 1 c_62 d d ) (* (/ (- 1) 4) c_63 ) (* (/ (- 1) 4) c_79 cost ) (* (/ (- 1) 4) c_80 cost d ) (* (/ (- 1) 4) c_81 cost cost ) (* (/ (- 1) 4) c_82 d ) (* (/ (- 1) 4) c_83 d d ) (* (/ (- 1) 4) c_84 ) ) 0) )))
(assert (forall ((a Real) (b Real) (cost Real) (c Real) (d Real) ) (=> (and (>= (+ (* (- 1) a ) (* (- 1) b ) (* (- 1) c ) (* 1 cost ) (* (- 1) d ) ) 0) (>= (* 1 a ) 0) (>= (+ (* 3 1) (* (- 1) a ) (* (- 1) b ) (* (- 1) c ) (* (- 1) d ) ) 0) (>= (* 1 b ) 0) (>= (* 1 c ) 0) (>= (* 1 d ) 0) (>= (+ (* 1 1) (* (- 2) a ) (* (- 2) b ) (* (- 2) c ) (* 1 cost ) (* (- 2) d ) ) 0) (>= (+ (* 1 1) (* (- 1) a ) ) 0) (>= (+ (* 1 1) (* (- 1) b ) ) 0) (>= (+ (* 1 1) (* (- 1) c ) ) 0) (>= (+ (* 1 1) (* (- 1) d ) ) 0) ) (>= (+ (* (/ 1 4) a b c_107 ) (* (/ 1 4) a b c_128 ) (* (/ 1 4) a b c_65 ) (* (/ 1 4) a b c_86 ) (* (/ 1 4) a c c_108 ) (* (/ 1 4) a c c_129 ) (* (/ 1 4) a c c_66 ) (* (/ 1 4) a c c_87 ) (* (/ 1 4) a c_106 ) (* (/ 1 4) a c_109 cost ) (* (/ 1 4) a c_110 d ) (* (/ 1 4) a c_127 ) (* (/ 1 4) a c_130 cost ) (* (/ 1 4) a c_131 d ) (* (/ 1 4) a c_64 ) (* (/ 1 4) a c_67 cost ) (* (/ 1 4) a c_68 d ) (* (/ 1 4) a c_85 ) (* (/ 1 4) a c_88 cost ) (* (/ 1 4) a c_89 d ) (* (/ 1 4) a a c_111 ) (* (/ 1 4) a a c_132 ) (* (/ 1 4) a a c_69 ) (* (/ 1 4) a a c_90 ) (* (/ 1 4) b c c_113 ) (* (/ 1 4) b c c_134 ) (* (/ 1 4) b c c_71 ) (* (/ 1 4) b c c_92 ) (* (/ 1 4) b c_112 ) (* (/ 1 4) b c_114 cost ) (* (/ 1 4) b c_115 d ) (* (/ 1 4) b c_133 ) (* (/ 1 4) b c_135 cost ) (* (/ 1 4) b c_136 d ) (* (/ 1 4) b c_70 ) (* (/ 1 4) b c_72 cost ) (* (/ 1 4) b c_73 d ) (* (/ 1 4) b c_91 ) (* (/ 1 4) b c_93 cost ) (* (/ 1 4) b c_94 d ) (* (/ 1 4) b b c_116 ) (* (/ 1 4) b b c_137 ) (* (/ 1 4) b b c_74 ) (* (/ 1 4) b b c_95 ) (* (/ 1 4) c c_117 ) (* (/ 1 4) c c_118 cost ) (* (/ 1 4) c c_119 d ) (* (/ 1 4) c c_138 ) (* (/ 1 4) c c_139 cost ) (* (/ 1 4) c c_140 d ) (* (/ 1 4) c c_75 ) (* (/ 1 4) c c_76 cost ) (* (/ 1 4) c c_77 d ) (* (/ 1 4) c c_96 ) (* (/ 1 4) c c_97 cost ) (* (/ 1 4) c c_98 d ) (* (/ 1 4) c c c_120 ) (* (/ 1 4) c c c_141 ) (* (/ 1 4) c c c_78 ) (* (/ 1 4) c c c_99 ) (* (/ 1 4) c_100 cost ) (* (/ 1 4) c_101 cost d ) (* (/ 1 4) c_102 cost cost ) (* (/ 1 4) c_103 d ) (* (/ 1 4) c_104 d d ) (* (/ 1 4) c_105 ) (* (/ 1 4) c_121 cost ) (* (/ 1 4) c_122 cost d ) (* (/ 1 4) c_123 cost cost ) (* (/ 1 4) c_124 d ) (* (/ 1 4) c_125 d d ) (* (/ 1 4) c_126 ) (* (/ 1 4) c_142 cost ) (* (/ 1 4) c_143 cost d ) (* (/ 1 4) c_144 cost cost ) (* (/ 1 4) c_145 d ) (* (/ 1 4) c_146 d d ) (* (/ 1 4) c_63 ) (* (/ 1 4) c_79 cost ) (* (/ 1 4) c_80 cost d ) (* (/ 1 4) c_81 cost cost ) (* (/ 1 4) c_82 d ) (* (/ 1 4) c_83 d d ) (* (/ 1 4) c_84 ) ) 0) )))
(assert (forall ((a Real) (b Real) (cost Real) (c Real) (d Real) ) (=> (and (>= (+ (* (- 1) a ) (* (- 1) b ) (* (- 1) c ) (* 1 cost ) (* (- 1) d ) ) 0) (>= (* 1 a ) 0) (>= (+ (* 3 1) (* (- 1) a ) (* (- 1) b ) (* (- 1) c ) (* (- 1) d ) ) 0) (>= (* 1 b ) 0) (>= (* 1 c ) 0) (>= (* 1 d ) 0) (>= (+ (* 1 1) (* (- 2) a ) (* (- 2) b ) (* (- 2) c ) (* 1 cost ) (* (- 2) d ) ) 0) (>= (+ (* 1 1) (* (- 1) a ) ) 0) (>= (+ (* 1 1) (* (- 1) b ) ) 0) (>= (+ (* 1 1) (* (- 1) c ) ) 0) (>= (+ (* 1 1) (* (- 1) d ) ) 0) ) (>= (+ (* (- 1) 1) (* 1 a b c_65 ) (* 1 a c c_66 ) (* 1 a c_64 ) (* 1 a c_67 cost ) (* 1 a c_68 d ) (* 1 a a c_69 ) (* (- 1) b c c_155 ) (* 1 b c c_71 ) (* (- 1) b c_149 ) (* (- 1) b c_154 ) (* (- 1) b c_156 cost ) (* (- 1) b c_157 d ) (* 1 b c_70 ) (* 1 b c_72 cost ) (* 1 b c_73 d ) (* (- 1) b b c_158 ) (* 1 b b c_74 ) (* (- 1) c c_150 ) (* (- 1) c c_159 ) (* (- 1) c c_160 cost ) (* (- 1) c c_161 d ) (* 1 c c_75 ) (* 1 c c_76 cost ) (* 1 c c_77 d ) (* (- 1) c c c_162 ) (* 1 c c c_78 ) (* (- 1) c_147 ) (* (- 1) c_148 ) (* (- 1) c_151 cost ) (* (- 1) c_152 d ) (* (- 1) c_153 ) (* (- 1) c_163 cost ) (* (- 1) c_164 cost d ) (* (- 1) c_165 cost cost ) (* (- 1) c_166 d ) (* (- 1) c_167 d d ) (* 1 c_63 ) (* 1 c_79 cost ) (* 1 c_80 cost d ) (* 1 c_81 cost cost ) (* 1 c_82 d ) (* 1 c_83 d d ) ) 0) )))
(assert (forall ((a Real) (b Real) (cost Real) (c Real) (d Real) ) (=> (and (>= (+ (* (- 1) a ) (* (- 1) b ) (* (- 1) c ) (* 1 cost ) (* (- 1) d ) ) 0) (>= (* 1 a ) 0) (>= (+ (* 3 1) (* (- 1) a ) (* (- 1) b ) (* (- 1) c ) (* (- 1) d ) ) 0) (>= (* 1 b ) 0) (>= (* 1 c ) 0) (>= (* 1 d ) 0) (>= (+ (* 1 1) (* (- 2) a ) (* (- 2) b ) (* (- 2) c ) (* 1 cost ) (* (- 2) d ) ) 0) (>= (+ (* 1 1) (* (- 1) a ) ) 0) (>= (+ (* 1 1) (* (- 1) b ) ) 0) (>= (+ (* 1 1) (* (- 1) c ) ) 0) (>= (+ (* 1 1) (* (- 1) d ) ) 0) ) (>= (+ (* 1 a b c_149 ) (* 1 a c c_150 ) (* 1 a c_148 ) (* 1 a c_151 cost ) (* 1 a c_152 d ) (* 1 a a c_153 ) (* 1 b c c_155 ) (* 1 b c_154 ) (* 1 b c_156 cost ) (* 1 b c_157 d ) (* 1 b b c_158 ) (* 1 c c_159 ) (* 1 c c_160 cost ) (* 1 c c_161 d ) (* 1 c c c_162 ) (* 1 c_147 ) (* 1 c_163 cost ) (* 1 c_164 cost d ) (* 1 c_165 cost cost ) (* 1 c_166 d ) (* 1 c_167 d d ) ) 0) )))
(assert (forall ((a Real) (b Real) (cost Real) (c Real) (d Real) ) (=> (and (>= (+ (* (- 1) a ) (* (- 1) b ) (* (- 1) c ) (* 1 cost ) (* (- 1) d ) ) 0) (>= (* 1 a ) 0) (>= (+ (* 3 1) (* (- 1) a ) (* (- 1) b ) (* (- 1) c ) (* (- 1) d ) ) 0) (>= (* 1 b ) 0) (>= (* 1 c ) 0) (>= (* 1 d ) 0) (>= (+ (* 1 1) (* (- 2) a ) (* (- 2) b ) (* (- 2) c ) (* 1 cost ) (* (- 2) d ) ) 0) (>= (+ (* 1 1) (* (- 1) a ) ) 0) (>= (+ (* 1 1) (* (- 1) b ) ) 0) (>= (+ (* 1 1) (* (- 1) c ) ) 0) (>= (+ (* 1 1) (* (- 1) d ) ) 0) ) (>= (+ (* (- 1) 1) (* 1 a b c_86 ) (* (- 1) a c c_150 ) (* 1 a c c_87 ) (* (- 1) a c_148 ) (* (- 1) a c_149 ) (* (- 1) a c_151 cost ) (* (- 1) a c_152 d ) (* 1 a c_85 ) (* 1 a c_88 cost ) (* 1 a c_89 d ) (* (- 1) a a c_153 ) (* 1 a a c_90 ) (* 1 b c c_92 ) (* 1 b c_91 ) (* 1 b c_93 cost ) (* 1 b c_94 d ) (* 1 b b c_95 ) (* (- 1) c c_155 ) (* (- 1) c c_159 ) (* (- 1) c c_160 cost ) (* (- 1) c c_161 d ) (* 1 c c_96 ) (* 1 c c_97 cost ) (* 1 c c_98 d ) (* (- 1) c c c_162 ) (* 1 c c c_99 ) (* 1 c_100 cost ) (* 1 c_101 cost d ) (* 1 c_102 cost cost ) (* 1 c_103 d ) (* 1 c_104 d d ) (* (- 1) c_147 ) (* (- 1) c_154 ) (* (- 1) c_156 cost ) (* (- 1) c_157 d ) (* (- 1) c_158 ) (* (- 1) c_163 cost ) (* (- 1) c_164 cost d ) (* (- 1) c_165 cost cost ) (* (- 1) c_166 d ) (* (- 1) c_167 d d ) (* 1 c_84 ) ) 0) )))
(assert (forall ((a Real) (b Real) (cost Real) (c Real) (d Real) ) (=> (and (>= (+ (* (- 1) a ) (* (- 1) b ) (* (- 1) c ) (* 1 cost ) (* (- 1) d ) ) 0) (>= (* 1 a ) 0) (>= (+ (* 3 1) (* (- 1) a ) (* (- 1) b ) (* (- 1) c ) (* (- 1) d ) ) 0) (>= (* 1 b ) 0) (>= (* 1 c ) 0) (>= (* 1 d ) 0) (>= (+ (* 1 1) (* (- 2) a ) (* (- 2) b ) (* (- 2) c ) (* 1 cost ) (* (- 2) d ) ) 0) (>= (+ (* 1 1) (* (- 1) a ) ) 0) (>= (+ (* 1 1) (* (- 1) b ) ) 0) (>= (+ (* 1 1) (* (- 1) c ) ) 0) (>= (+ (* 1 1) (* (- 1) d ) ) 0) ) (>= (+ (* 1 a b c_149 ) (* 1 a c c_150 ) (* 1 a c_148 ) (* 1 a c_151 cost ) (* 1 a c_152 d ) (* 1 a a c_153 ) (* 1 b c c_155 ) (* 1 b c_154 ) (* 1 b c_156 cost ) (* 1 b c_157 d ) (* 1 b b c_158 ) (* 1 c c_159 ) (* 1 c c_160 cost ) (* 1 c c_161 d ) (* 1 c c c_162 ) (* 1 c_147 ) (* 1 c_163 cost ) (* 1 c_164 cost d ) (* 1 c_165 cost cost ) (* 1 c_166 d ) (* 1 c_167 d d ) ) 0) )))
(assert (forall ((a Real) (b Real) (cost Real) (c Real) (d Real) ) (=> (and (>= (+ (* (- 1) a ) (* (- 1) b ) (* (- 1) c ) (* 1 cost ) (* (- 1) d ) ) 0) (>= (* 1 a ) 0) (>= (+ (* 3 1) (* (- 1) a ) (* (- 1) b ) (* (- 1) c ) (* (- 1) d ) ) 0) (>= (* 1 b ) 0) (>= (* 1 c ) 0) (>= (* 1 d ) 0) (>= (+ (* 1 1) (* (- 2) a ) (* (- 2) b ) (* (- 2) c ) (* 1 cost ) (* (- 2) d ) ) 0) (>= (+ (* 1 1) (* (- 1) a ) ) 0) (>= (+ (* 1 1) (* (- 1) b ) ) 0) (>= (+ (* 1 1) (* (- 1) c ) ) 0) (>= (+ (* 1 1) (* (- 1) d ) ) 0) ) (>= (+ (* (- 1) 1) (* 1 a b c_107 ) (* (- 1) a b c_149 ) (* 1 a c c_108 ) (* 1 a c_106 ) (* 1 a c_109 cost ) (* 1 a c_110 d ) (* (- 1) a c_148 ) (* (- 1) a c_150 ) (* (- 1) a c_151 cost ) (* (- 1) a c_152 d ) (* 1 a a c_111 ) (* (- 1) a a c_153 ) (* 1 b c c_113 ) (* 1 b c_112 ) (* 1 b c_114 cost ) (* 1 b c_115 d ) (* (- 1) b c_154 ) (* (- 1) b c_155 ) (* (- 1) b c_156 cost ) (* (- 1) b c_157 d ) (* 1 b b c_116 ) (* (- 1) b b c_158 ) (* 1 c c_117 ) (* 1 c c_118 cost ) (* 1 c c_119 d ) (* 1 c c c_120 ) (* 1 c_105 ) (* 1 c_121 cost ) (* 1 c_122 cost d ) (* 1 c_123 cost cost ) (* 1 c_124 d ) (* 1 c_125 d d ) (* (- 1) c_147 ) (* (- 1) c_159 ) (* (- 1) c_160 cost ) (* (- 1) c_161 d ) (* (- 1) c_162 ) (* (- 1) c_163 cost ) (* (- 1) c_164 cost d ) (* (- 1) c_165 cost cost ) (* (- 1) c_166 d ) (* (- 1) c_167 d d ) ) 0) )))
(assert (forall ((a Real) (b Real) (cost Real) (c Real) (d Real) ) (=> (and (>= (+ (* (- 1) a ) (* (- 1) b ) (* (- 1) c ) (* 1 cost ) (* (- 1) d ) ) 0) (>= (* 1 a ) 0) (>= (+ (* 3 1) (* (- 1) a ) (* (- 1) b ) (* (- 1) c ) (* (- 1) d ) ) 0) (>= (* 1 b ) 0) (>= (* 1 c ) 0) (>= (* 1 d ) 0) (>= (+ (* 1 1) (* (- 2) a ) (* (- 2) b ) (* (- 2) c ) (* 1 cost ) (* (- 2) d ) ) 0) (>= (+ (* 1 1) (* (- 1) a ) ) 0) (>= (+ (* 1 1) (* (- 1) b ) ) 0) (>= (+ (* 1 1) (* (- 1) c ) ) 0) (>= (+ (* 1 1) (* (- 1) d ) ) 0) ) (>= (+ (* 1 a b c_149 ) (* 1 a c c_150 ) (* 1 a c_148 ) (* 1 a c_151 cost ) (* 1 a c_152 d ) (* 1 a a c_153 ) (* 1 b c c_155 ) (* 1 b c_154 ) (* 1 b c_156 cost ) (* 1 b c_157 d ) (* 1 b b c_158 ) (* 1 c c_159 ) (* 1 c c_160 cost ) (* 1 c c_161 d ) (* 1 c c c_162 ) (* 1 c_147 ) (* 1 c_163 cost ) (* 1 c_164 cost d ) (* 1 c_165 cost cost ) (* 1 c_166 d ) (* 1 c_167 d d ) ) 0) )))
(assert (forall ((a Real) (b Real) (cost Real) (c Real) (d Real) ) (=> (and (>= (+ (* (- 1) a ) (* (- 1) b ) (* (- 1) c ) (* 1 cost ) (* (- 1) d ) ) 0) (>= (* 1 a ) 0) (>= (+ (* 3 1) (* (- 1) a ) (* (- 1) b ) (* (- 1) c ) (* (- 1) d ) ) 0) (>= (* 1 b ) 0) (>= (* 1 c ) 0) (>= (* 1 d ) 0) (>= (+ (* 1 1) (* (- 2) a ) (* (- 2) b ) (* (- 2) c ) (* 1 cost ) (* (- 2) d ) ) 0) (>= (+ (* 1 1) (* (- 1) a ) ) 0) (>= (+ (* 1 1) (* (- 1) b ) ) 0) (>= (+ (* 1 1) (* (- 1) c ) ) 0) (>= (+ (* 1 1) (* (- 1) d ) ) 0) ) (>= (+ (* (- 1) 1) (* 1 a b c_128 ) (* (- 1) a b c_149 ) (* 1 a c c_129 ) (* (- 1) a c c_150 ) (* 1 a c_127 ) (* 1 a c_130 cost ) (* 1 a c_131 d ) (* (- 1) a c_148 ) (* (- 1) a c_151 cost ) (* (- 1) a c_152 ) (* 1 a a c_132 ) (* (- 1) a a c_153 ) (* 1 b c c_134 ) (* (- 1) b c c_155 ) (* 1 b c_133 ) (* 1 b c_135 cost ) (* 1 b c_136 d ) (* (- 1) b c_154 ) (* (- 1) b c_156 cost ) (* (- 1) b c_157 ) (* 1 b b c_137 ) (* (- 1) b b c_158 ) (* 1 c c_138 ) (* 1 c c_139 cost ) (* 1 c c_140 d ) (* (- 1) c c_159 ) (* (- 1) c c_160 cost ) (* (- 1) c c_161 ) (* 1 c c c_141 ) (* (- 1) c c c_162 ) (* 1 c_126 ) (* 1 c_142 cost ) (* 1 c_143 cost d ) (* 1 c_144 cost cost ) (* 1 c_145 d ) (* 1 c_146 d d ) (* (- 1) c_147 ) (* (- 1) c_163 cost ) (* (- 1) c_164 cost ) (* (- 1) c_165 cost cost ) (* (- 1) c_166 ) (* (- 1) c_167 ) ) 0) )))
(assert (forall ((a Real) (b Real) (cost Real) (c Real) (d Real) ) (=> (and (>= (+ (* (- 1) a ) (* (- 1) b ) (* (- 1) c ) (* 1 cost ) (* (- 1) d ) ) 0) (>= (* 1 a ) 0) (>= (+ (* 3 1) (* (- 1) a ) (* (- 1) b ) (* (- 1) c ) (* (- 1) d ) ) 0) (>= (* 1 b ) 0) (>= (* 1 c ) 0) (>= (* 1 d ) 0) (>= (+ (* 1 1) (* (- 2) a ) (* (- 2) b ) (* (- 2) c ) (* 1 cost ) (* (- 2) d ) ) 0) (>= (+ (* 1 1) (* (- 1) a ) ) 0) (>= (+ (* 1 1) (* (- 1) b ) ) 0) (>= (+ (* 1 1) (* (- 1) c ) ) 0) (>= (+ (* 1 1) (* (- 1) d ) ) 0) ) (>= (+ (* 1 a b c_149 ) (* 1 a c c_150 ) (* 1 a c_148 ) (* 1 a c_151 cost ) (* 1 a c_152 d ) (* 1 a a c_153 ) (* 1 b c c_155 ) (* 1 b c_154 ) (* 1 b c_156 cost ) (* 1 b c_157 d ) (* 1 b b c_158 ) (* 1 c c_159 ) (* 1 c c_160 cost ) (* 1 c c_161 d ) (* 1 c c c_162 ) (* 1 c_147 ) (* 1 c_163 cost ) (* 1 c_164 cost d ) (* 1 c_165 cost cost ) (* 1 c_166 d ) (* 1 c_167 d d ) ) 0) )))
(assert (forall ((a Real) (b Real) (cost Real) (c Real) (d Real) ) (=> (and (>= (+ (* 1 1) (* (- 1) a ) (* 2 b ) (* 2 c ) (* 2 d ) ) 0) (>= (+ (* 1 1) (* 2 a ) (* 2 b ) (* (- 1) c ) (* 2 d ) ) 0) (>= (+ (* 2 1) (* (- 1) a ) (* (- 1) b ) (* (- 2) c ) (* 1 cost ) (* (- 1) d ) ) 0) (>= (+ (* (- 1) 1) (* 1 a ) (* 1 b ) (* 1 c ) (* 1 d ) ) 0) (>= (* 1 b ) 0) (>= (+ (* 2 1) (* (- 1) a ) (* (- 1) b ) (* (- 1) c ) (* 1 cost ) (* (- 2) d ) ) 0) (>= (+ (* 2 1) (* (- 2) a ) (* (- 1) b ) (* (- 1) c ) (* 1 cost ) (* (- 1) d ) ) 0) (>= (+ (* 1 1) (* 2 a ) (* 2 b ) (* 2 c ) (* (- 1) d ) ) 0) (>= (* 1 d ) 0) (>= (+ (* 1 1) (* (- 1) a ) (* (- 1) b ) (* (- 1) c ) (* 1 cost ) (* (- 1) d ) ) 0) (>= (+ (* 1 1) (* 2 a ) (* (- 1) b ) (* 2 c ) (* 2 d ) ) 0) (>= (* 1 c ) 0) (>= (* 1 a ) 0) (>= (+ (* 2 1) (* (- 1) a ) (* (- 2) b ) (* (- 1) c ) (* 1 cost ) (* (- 1) d ) ) 0) (>= (+ (* 4 1) (* (- 1) a ) (* (- 1) b ) (* (- 1) c ) (* (- 1) d ) ) 0) (>= (+ (* 3 1) (* (- 2) a ) (* (- 2) b ) (* (- 2) c ) (* 1 cost ) (* (- 2) d ) ) 0) (>= (+ (* 1 1) (* (- 1) a ) ) 0) (>= (+ (* 1 1) (* (- 1) b ) ) 0) (>= (+ (* 1 1) (* (- 1) c ) ) 0) (>= (+ (* 1 1) (* (- 1) d ) ) 0) ) (>= (+ (* (- 1) 1) (* 1 a b c_149 ) (* (- 1) a b c_2 ) (* 1 a c c_150 ) (* (- 1) a c c_3 ) (* (- 1) a c_1 ) (* 1 a c_148 ) (* 1 a c_151 cost ) (* 1 a c_152 d ) (* (- 1) a c_4 cost ) (* (- 1) a c_5 d ) (* 1 a a c_153 ) (* (- 1) a a c_6 ) (* 1 b c c_155 ) (* (- 1) b c c_8 ) (* (- 1) b c_10 d ) (* 1 b c_154 ) (* 1 b c_156 cost ) (* 1 b c_157 d ) (* (- 1) b c_7 ) (* (- 1) b c_9 cost ) (* (- 1) b b c_11 ) (* 1 b b c_158 ) (* (- 1) c c_12 ) (* (- 1) c c_13 cost ) (* (- 1) c c_14 d ) (* 1 c c_159 ) (* 1 c c_160 cost ) (* 1 c c_161 d ) (* (- 1) c c c_15 ) (* 1 c c c_162 ) (* (- 1) c_0 ) (* 1 c_147 ) (* (- 1) c_16 cost ) (* 1 c_163 cost ) (* 1 c_164 cost d ) (* 1 c_165 cost cost ) (* 1 c_166 d ) (* 1 c_167 d d ) (* (- 1) c_17 cost d ) (* (- 1) c_18 cost cost ) (* (- 1) c_19 d ) (* (- 1) c_20 d d ) ) 0) )))
(assert (forall ((a Real) (b Real) (cost Real) (c Real) (d Real) ) (=> (and (>= (+ (* 1 1) (* (- 1) a ) (* 2 b ) (* 2 c ) (* 2 d ) ) 0) (>= (+ (* 1 1) (* 2 a ) (* 2 b ) (* (- 1) c ) (* 2 d ) ) 0) (>= (+ (* 2 1) (* (- 1) a ) (* (- 1) b ) (* (- 2) c ) (* 1 cost ) (* (- 1) d ) ) 0) (>= (+ (* (- 1) 1) (* 1 a ) (* 1 b ) (* 1 c ) (* 1 d ) ) 0) (>= (* 1 b ) 0) (>= (+ (* 2 1) (* (- 1) a ) (* (- 1) b ) (* (- 1) c ) (* 1 cost ) (* (- 2) d ) ) 0) (>= (+ (* 2 1) (* (- 2) a ) (* (- 1) b ) (* (- 1) c ) (* 1 cost ) (* (- 1) d ) ) 0) (>= (+ (* 1 1) (* 2 a ) (* 2 b ) (* 2 c ) (* (- 1) d ) ) 0) (>= (* 1 d ) 0) (>= (+ (* 1 1) (* (- 1) a ) (* (- 1) b ) (* (- 1) c ) (* 1 cost ) (* (- 1) d ) ) 0) (>= (+ (* 1 1) (* 2 a ) (* (- 1) b ) (* 2 c ) (* 2 d ) ) 0) (>= (* 1 c ) 0) (>= (* 1 a ) 0) (>= (+ (* 2 1) (* (- 1) a ) (* (- 2) b ) (* (- 1) c ) (* 1 cost ) (* (- 1) d ) ) 0) (>= (+ (* 4 1) (* (- 1) a ) (* (- 1) b ) (* (- 1) c ) (* (- 1) d ) ) 0) (>= (+ (* 3 1) (* (- 2) a ) (* (- 2) b ) (* (- 2) c ) (* 1 cost ) (* (- 2) d ) ) 0) (>= (+ (* 1 1) (* (- 1) a ) ) 0) (>= (+ (* 1 1) (* (- 1) b ) ) 0) (>= (+ (* 1 1) (* (- 1) c ) ) 0) (>= (+ (* 1 1) (* (- 1) d ) ) 0) ) (>= (+ (* 1 a b c_2 ) (* 1 a c c_3 ) (* 1 a c_1 ) (* 1 a c_4 cost ) (* 1 a c_5 d ) (* 1 a a c_6 ) (* 1 b c c_8 ) (* 1 b c_10 d ) (* 1 b c_7 ) (* 1 b c_9 cost ) (* 1 b b c_11 ) (* 1 c c_12 ) (* 1 c c_13 cost ) (* 1 c c_14 d ) (* 1 c c c_15 ) (* 1 c_0 ) (* 1 c_16 cost ) (* 1 c_17 cost d ) (* 1 c_18 cost cost ) (* 1 c_19 d ) (* 1 c_20 d d ) ) 0) )))
(check-sat)
(get-model)

